(set-logic QF_BV)
(declare-fun _substvar_578_ () (_ BitVec 8))
(declare-fun _substvar_685_ () (_ BitVec 16))
(declare-fun _substvar_210_ () (_ BitVec 8))
(declare-fun _substvar_577_ () (_ BitVec 32))
(declare-fun _substvar_684_ () (_ BitVec 8))
(declare-fun _substvar_679_ () (_ BitVec 16))
(assert (let ( (?v_11 ((_ zero_extend 24) _substvar_210_))) (let ( (?v_13 ((_ zero_extend 24) _substvar_578_))) (let ( (?v_9 ((_ zero_extend 16) _substvar_679_)) (?v_7 ((_ zero_extend 24) _substvar_684_)) (?v_3 ((_ zero_extend 16) _substvar_685_))) (let ((?v_5 (bvadd (bvadd (_ bv0 32) (_ bv4268253 32)) ?v_3))) (let ((?v_8 (bvadd ?v_5 (_ bv6 32)))) (let ((?v_17 (bvadd (bvadd ?v_8 (bvadd ?v_7 (_ bv1 32))) (_ bv2 32)))) (let ((?v_16 (bvadd ?v_17 ?v_9))) (let ((?v_24 (bvadd ?v_16 (_ bv6 32)))) (let ((?v_28 (bvadd ?v_24 (_ bv0 32)))) (let ((?v_31 (bvadd ?v_28 (_ bv2 32)))) (let ((?v_34 (bvadd ?v_31 ?v_11))) (let ((?v_37 (bvadd (bvadd ?v_34 (_ bv1 32)) (_ bv0 32)))) (let ((?v_40 (bvadd (bvadd ?v_37 (_ bv1 32)) ?v_13))) (let ((?v_6 (bvadd (bvadd (_ bv0 32) (_ bv4268262 32)) ?v_3))) (let ((?v_25 (bvadd (bvadd (bvadd (bvadd ?v_6 (_ bv15 32)) (_ bv0 32)) (_ bv2 32)) ?v_9))) (and true true true true true true (bvsle (_ bv1040 32) (bvsub (bvadd (bvadd (bvadd (bvadd (bvadd (bvadd (bvadd (bvadd ?v_25 (_ bv7 32)) _substvar_577_) (_ bv3 32)) ?v_11) (_ bv0 32)) (_ bv0 32)) (_ bv0 32)) ?v_13) (_ bv4268072 32))) true true true true true true true true true true true true true true true true true true true true true true true true true true true true true (= _substvar_577_ (_ bv1 32)) true true true true true true true true true true true true true true (bvule (bvadd ?v_40 (_ bv2 32)) (_ bv4269078 32)) true true true true)))))))))))))))))
(check-sat)
(exit)
